Version identifier: 12.10.0.0 | 2019-11-26 | 843d4de
CPXPARAM_WorkMem                                 28672
Tried aggregator 2 times.
MIP Presolve modified 21 coefficients.
Aggregator did 30 substitutions.
Reduced MIP has 170 rows, 225 columns, and 825 nonzeros.
Reduced MIP has 225 binaries, 0 generals, 0 SOSs, and 0 indicators.
Presolve time = 0,00 sec. (0,96 ticks)
Found incumbent of value 715,000000 after 0,00 sec. (1,57 ticks)
Probing time = 0,00 sec. (0,28 ticks)
Tried aggregator 1 time.
Detecting symmetries...
MIP Presolve eliminated 40 rows and 0 columns.
MIP Presolve added 80 rows and 0 columns.
Reduced MIP has 210 rows, 225 columns, and 865 nonzeros.
Reduced MIP has 225 binaries, 0 generals, 0 SOSs, and 0 indicators.
Presolve time = 0,00 sec. (0,98 ticks)
Probing time = 0,00 sec. (0,27 ticks)
Clique table members: 540.
MIP emphasis: balance optimality and feasibility.
MIP search method: dynamic search.
Parallel mode: deterministic, using up to 16 threads.
Root relaxation solution time = 0,00 sec. (0,93 ticks)

        Nodes                                         Cuts/
   Node  Left     Objective  IInf  Best Integer    Best Bound    ItCnt     Gap

*     0+    0                          715,0000        0,0000           100,00%
*     0+    0                          294,0000        0,0000           100,00%
*     0+    0                          286,0000        0,0000           100,00%
      0     0      143,7000    76      286,0000      143,7000      112   49,76%
      0     0      144,4981    76      286,0000     Cuts: 152      172   49,48%
      0     0      145,9082    76      286,0000     Cuts: 148      218   48,98%
*     0+    0                          285,0000      145,9082            48,80%
      0     0      147,1166    76      285,0000     Cuts: 152      276   48,38%
      0     0      147,1919    76      285,0000      Cuts: 69      301   48,35%
      0     0      147,2914    76      285,0000   ZeroHalf: 6      317   48,32%
      0     0      147,4135    76      285,0000      Cuts: 62      339   48,28%
      0     0      147,5630    76      285,0000  ZeroHalf: 13      370   48,22%
      0     0      148,1666    76      285,0000      Cuts: 21      402   48,01%
      0     0      148,3559    76      285,0000      Cuts: 17      423   47,95%
      0     0      148,5893    76      285,0000      Cuts: 57      454   47,86%
      0     0      148,6815    76      285,0000   ZeroHalf: 6      485   47,83%
      0     0      148,8319    76      285,0000      Cuts: 41      520   47,78%
      0     0      149,0157    76      285,0000      Cuts: 39      549   47,71%
      0     0      149,1599    76      285,0000   ZeroHalf: 8      591   47,66%
      0     0      149,1670    76      285,0000      Cuts: 76      607   47,66%
      0     0      149,2252    76      285,0000      Cuts: 17      629   47,64%
      0     0      149,2639    76      285,0000      Cuts: 67      638   47,63%
      0     0      149,3564    76      285,0000  ZeroHalf: 14      660   47,59%
      0     0      149,4009    76      285,0000      Cuts: 21      681   47,58%
      0     0      149,5909    76      285,0000      Cuts: 45      720   47,51%
      0     0      149,7619    76      285,0000      Cuts: 48      751   47,45%
      0     0      149,8152    76      285,0000      Cuts: 44      761   47,43%
      0     0      149,8857    76      285,0000      Cuts: 19      786   47,41%
*     0+    0                          253,0000      149,8857            40,76%
      0     0      149,9372    76      253,0000      Cuts: 30      826   33,09%
      0     0      153,8149    76      253,0000      Cuts: 46      908   33,09%
      0     0      155,2040    76      253,0000     Cuts: 145     1016   33,09%
      0     2      155,2040   197      253,0000      177,0333     1016   30,03%
Elapsed time = 0,34 sec. (162,63 ticks, tree = 0,02 MB, solutions = 5)
*   533+  102                          251,0000      177,0333            29,47%
*   668   105      integral     0      250,0000      177,0333     9658   29,19%
*  1403   142      integral     0      247,0000      177,0333    25235   28,33%

Clique cuts applied:  51
Cover cuts applied:  148
Flow cuts applied:  5
Mixed integer rounding cuts applied:  50
Zero-half cuts applied:  26
Lift and project cuts applied:  12
Gomory fractional cuts applied:  6

Root node processing (before b&c):
  Real time             =    0,33 sec. (162,32 ticks)
Parallel b&c, 16 threads:
  Real time             =    0,21 sec. (135,82 ticks)
  Sync time (average)   =    0,09 sec.
  Wait time (average)   =    0,00 sec.
                          ------------
Total (root+branch&cut) =    0,53 sec. (298,14 ticks)
